!   File created by Faramarz Joodaki 
 $BASIS GBASIS=N31 NGAUSS=6 NDFUNC=1 $END
 $CONTRL SCFTYP=RHF RUNTYP=OPTIMIZE DFTTYP=B3LYP MULT=1 COORD=UNIQUE $END
 $CONTRL MOLPLT=.TRUE. MAXIT=50 $END
 $SCF DIRSCF=.TRUE. $END
 $SYSTEM MWORDS=100 MEMDDI=500 PARALL=.TRUE. $END
 $STATPT OPTTOL=0.0001 NSTEP=200 PROJCT=.FALSE. $END
 $ELPOT IEPOT=1 WHERE=PDC $END
 $PDC PTSEL=CONNOLLY $END

 $DATA 
Title
C1
O     8.0     1.0669000000   0.3186900000  -1.1464000000
O     8.0    -7.0195700000   1.3754900000  -0.4785000000
O     8.0     4.7814100000   1.0959300000  -0.1638200000
O     8.0     6.2342900000   2.4721300000   0.5723600000
C     6.0     0.4666300000  -0.8737300000  -0.6069900000
C     6.0     1.1224300000  -1.2235500000   0.7657500000
C     6.0    -1.0603200000  -0.5381700000  -0.5567300000
C     6.0    -1.3173700000   0.6202900000   0.4767900000
C     6.0    -2.8451200000   1.0283300000   0.5813600000
C     6.0     2.5892500000  -1.5802900000   0.3442100000
C     6.0     0.9041200000  -0.0175900000   1.7196500000
C     6.0    -0.6086000000   0.3405400000   1.8486800000
C     6.0     0.9667900000  -1.9962600000  -1.5330600000
C     6.0    -3.7679700000  -0.2328300000   0.7052400000
C     6.0    -2.0137800000  -1.7441300000  -0.3559900000
C     6.0     2.4332800000  -2.2207000000  -1.0735900000
C     6.0    -3.4783200000  -1.2895600000  -0.3945000000
C     6.0     0.5916900000  -2.5097100000   1.4876100000
C     6.0    -3.2515500000   1.8395200000  -0.6950100000
C     6.0    -5.2758100000   0.1441900000   0.6780500000
C     6.0    -4.7585500000   2.1947800000  -0.7603000000
C     6.0    -5.6581900000   0.9511200000  -0.5857500000
C     6.0     3.6195800000  -0.4487800000   0.4759200000
C     6.0     4.2459800000  -0.2254800000   1.7045500000
C     6.0     4.0103300000   0.3996300000  -0.5703200000
C     6.0     5.1785700000   0.8061400000   1.7837300000
C     6.0     5.4307800000   1.5423200000   0.6242300000
H     1.0    -1.3078600000  -0.1483000000  -1.5469800000
H     1.0    -0.8073600000   1.5068000000   0.0905200000
C     6.0    -3.0499300000   1.9566000000   1.8207600000
H     1.0     2.9769700000  -2.3720600000   0.9904700000
H     1.0     1.4357900000   0.8644900000   1.3551300000
H     1.0     1.3125200000  -0.2421800000   2.7079200000
H     1.0    -1.1489000000  -0.4332200000   2.3943700000
H     1.0    -0.6455600000   1.2340300000   2.4738100000
H     1.0     0.9146600000  -1.7191100000  -2.5892800000
H     1.0     0.3894100000  -2.9122500000  -1.3969000000
H     1.0    -3.5688900000  -0.7084400000   1.6694200000
H     1.0    -1.8609200000  -2.2466100000   0.5905800000
H     1.0    -1.8568100000  -2.4810500000  -1.1459900000
H     1.0     2.6409700000  -3.2926300000  -1.0299700000
H     1.0     3.1293200000  -1.7912900000  -1.7950500000
H     1.0    -3.7042800000  -0.9032800000  -1.3897500000
H     1.0    -4.1192800000  -2.1611800000  -0.2402100000
H     1.0     0.5107300000  -3.3637900000   0.8135700000
H     1.0    -0.3652200000  -2.3737700000   1.9806700000
H     1.0     1.2723700000  -2.7972600000   2.2927100000
H     1.0    -3.0035500000   1.2820700000  -1.5987600000
H     1.0    -2.6729300000   2.7656600000  -0.7421700000
H     1.0    -5.8785800000  -0.7664800000   0.7197600000
H     1.0    -5.5328900000   0.7169500000   1.5716900000
H     1.0     0.7659600000   0.4337900000  -2.0655400000
H     1.0    -5.0058800000   2.9442700000  -0.0060500000
H     1.0    -4.9708900000   2.6550000000  -1.7283300000
H     1.0    -5.5597900000   0.3146500000  -1.4687800000
H     1.0     4.0121300000  -0.8302800000   2.5765500000
H     1.0     3.5935100000   0.3383300000  -1.5725000000
H     1.0    -7.5912700000   0.5907500000  -0.3863300000
H     1.0     5.6927400000   1.0307000000   2.7144900000
H     1.0    -2.9027000000   1.4106900000   2.7551200000
H     1.0    -4.0511200000   2.3821600000   1.8738600000
H     1.0    -2.3474500000   2.7934000000   1.7956000000
 $END
